; benchmark generated from python API
(set-info :status unknown)
(declare-datatypes ((RealState 0)) (((RMk1 (rval1 Real)) (RMk2 (rval2 Real)))))
 (assert
 (forall ((|v11:0| Real) )(exists ((|v10:1_st| RealState) (val!3048 Real) )(forall ((|v9:2| Real) )(exists ((|v8:3_st| RealState) (val!3049 Real) )(forall ((|v7:4| Real) )(exists ((|v6:5_st| RealState) (val!3050 Real) )(forall ((|v5:6| Real) )(exists ((|v4:7_st| RealState) (val!3051 Real) )(forall ((|v3:8| Real) )(exists ((|v2:9_st| RealState) (val!3052 Real) )(forall ((|v1:10| Real) )(exists ((|v0:11_st| RealState) (val!3053 Real) )(let ((?x1526 (- 7.0)))
 (let ((?x608 (rval2 |v0:11_st|)))
 (let ((?x1629 (* 19.0 ?x608)))
 (let ((?x419 (+ (+ (+ (* 11.0 |v5:6|) (* (- 15.0) (rval2 |v2:9_st|))) (* 5.0 |v9:2|)) ?x1629)))
 (let ((?x931 (+ (+ (* (- 8.0) (rval2 |v6:5_st|)) (* 16.0 (rval2 |v8:3_st|))) (* (- 12.0) (rval2 |v4:7_st|)))))
 (let ((?x2395 (- 10.0)))
 (let ((?x1175 (rval2 |v10:1_st|)))
 (let ((?x2359 (* 5.0 ?x1175)))
 (let ((?x1975 (+ (+ (+ (* 20.0 |v3:8|) (* (- 4.0) (rval2 |v8:3_st|))) ?x2359) (* (- 11.0) (rval2 |v6:5_st|)))))
 (let ((?x2685 (- 15.0)))
 (let ((?x706 (* ?x2685 |v3:8|)))
 (let ((?x1829 (+ (+ (+ (* 0.0 (rval2 |v4:7_st|)) (* (- 6.0) |v11:0|)) ?x706) (* 17.0 |v11:0|))))
 (let (($x2996 (and (or (<= ?x1829 13.0) (<= ?x1975 ?x2395)) (and (<= (+ ?x931 (* 3.0 (rval2 |v4:7_st|))) 5.0) (<= ?x419 ?x1526)))))
 (let ((?x1236 (- 11.0)))
 (let ((?x3016 (* 7.0 ?x1175)))
 (let ((?x53 (+ (+ (* ?x1236 |v11:0|) (* (- 14.0) (rval2 |v8:3_st|))) (* (- 20.0) (rval2 |v4:7_st|)))))
 (let ((?x1248 (- 19.0)))
 (let ((?x2092 (* ?x1248 |v1:10|)))
 (let ((?x2301 (+ (+ (+ (* (- 13.0) |v3:8|) (* ?x1248 (rval2 |v2:9_st|))) (* ?x2685 |v5:6|)) ?x2092)))
 (let ((?x721 (- 5.0)))
 (let ((?x962 (* 8.0 |v3:8|)))
 (let ((?x2803 (rval2 |v8:3_st|)))
 (let ((?x1184 (* 10.0 ?x2803)))
 (let (($x2422 (<= (+ (+ (+ (* 6.0 |v5:6|) (* (- 8.0) (rval2 |v6:5_st|))) ?x1184) ?x962) ?x721)))
 (let ((?x1188 (- 1.0)))
 (let ((?x2701 (- 8.0)))
 (let ((?x2590 (* ?x2701 ?x2803)))
 (let ((?x3058 (+ (+ (+ (* 0.0 ?x2803) (* (- 14.0) |v11:0|)) (* (- 3.0) ?x608)) ?x2590)))
 (let (($x1172 (and (or (<= ?x3058 ?x1188) $x2422) (and (<= ?x2301 4.0) (<= (+ ?x53 ?x3016) ?x1236)))))
 (let ((?x1663 (rval2 |v2:9_st|)))
 (let ((?x2412 (- 3.0)))
 (let ((?x2652 (* ?x2412 ?x1663)))
 (let ((?x2645 (+ (+ (+ (* 10.0 ?x1663) (* (- 17.0) ?x608)) ?x2652) (* 2.0 (rval2 |v4:7_st|)))))
 (let ((?x3024 (- 9.0)))
 (let ((?x2212 (+ (+ (* (- 4.0) |v7:4|) (* (- 4.0) (rval2 |v6:5_st|))) (* (- 14.0) (rval2 |v6:5_st|)))))
 (let (($x2610 (or (<= (+ ?x2212 (* ?x2395 |v7:4|)) 18.0) (<= (+ (+ (+ |v5:6| ?x2590) (* 11.0 ?x1175)) (* 2.0 ?x1175)) ?x3024))))
 (let ((?x269 (+ (+ (+ (* 20.0 (rval2 |v4:7_st|)) (* 13.0 ?x2803)) (* 7.0 |v11:0|)) (* 20.0 ?x2803))))
 (let ((?x1595 (+ (+ (+ (* 4.0 |v1:10|) (* 9.0 (rval2 |v6:5_st|))) (* ?x1526 ?x1175)) (* (- 16.0) ?x608))))
 (let ((?x1981 (+ (+ (+ (* 15.0 (rval2 |v4:7_st|)) (* ?x1188 ?x1663)) (* ?x2685 |v11:0|)) (* 12.0 ?x2803))))
 (let ((?x2992 (- 12.0)))
 (let ((?x2228 (* 4.0 ?x1663)))
 (let (($x2515 (<= (+ (+ (+ (* 7.0 (rval2 |v6:5_st|)) (* ?x2701 |v11:0|)) ?x2590) ?x2228) ?x2992)))
 (let ((?x1253 (* 15.0 |v11:0|)))
 (let ((?x693 (+ (+ (+ (* ?x2395 |v1:10|) (* 13.0 (rval2 |v4:7_st|))) (* ?x1188 ?x1663)) ?x1253)))
 (let (($x723 (or (and (<= ?x693 20.0) (and $x2515 (<= ?x1981 ?x1236))) (and (and (<= ?x1595 11.0) (<= ?x269 11.0)) $x2610))))
 (let ((?x1969 (+ (+ (+ (* 6.0 |v7:4|) (* ?x2685 ?x1663)) (* 16.0 ?x608)) (* (- 20.0) ?x1663))))
 (let ((?x1059 (* 9.0 |v3:8|)))
 (let ((?x1226 (+ (+ (+ (* 18.0 |v3:8|) (* ?x3024 (rval2 |v6:5_st|))) (* (- 16.0) |v3:8|)) ?x1059)))
 (let ((?x2729 (* 2.0 |v9:2|)))
 (let ((?x1989 (+ (+ (+ (* (- 18.0) |v11:0|) (* 19.0 |v5:6|)) (* 11.0 (rval2 |v6:5_st|))) ?x2729)))
 (let ((?x284 (+ (+ (+ (* ?x2685 |v9:2|) (* (- 20.0) |v1:10|)) (* 16.0 |v3:8|)) (* 17.0 ?x1175))))
 (let (($x2564 (or (or (<= ?x284 0.0) (<= ?x1989 7.0)) (or (<= ?x1226 ?x1188) (<= ?x1969 17.0)))))
 (let ((?x108 (* ?x2992 |v1:10|)))
 (let ((?x1600 (+ (+ (+ (* 7.0 (rval2 |v6:5_st|)) (* 16.0 |v9:2|)) (* ?x721 ?x1175)) ?x108)))
 (let ((?x242 (* 14.0 |v1:10|)))
 (let (($x2547 (<= (+ (+ (+ ?x608 (* 6.0 |v11:0|)) (* (- 13.0) |v9:2|)) ?x242) 12.0)))
 (let (($x2747 (<= (+ (+ (+ (* ?x2412 |v5:6|) ?x2729) (* 16.0 |v5:6|)) (* 17.0 ?x608)) ?x2412)))
 (let ((?x109 (- 2.0)))
 (let (($x1218 (<= (+ (+ (+ ?x3016 (* 18.0 ?x2803)) (* ?x1526 |v11:0|)) (* 19.0 |v3:8|)) ?x109)))
 (let (($x2898 (and (or (and (and $x1218 $x2747) (and $x2547 (<= ?x1600 17.0))) $x2564) $x723)))
 (let ((?x2346 (+ (+ (+ (* ?x2685 |v5:6|) (* (- 13.0) ?x608)) (* 11.0 |v7:4|)) (* 16.0 (rval2 |v4:7_st|)))))
 (let ((?x1176 (- 13.0)))
 (let ((?x2251 (- 17.0)))
 (let ((?x549 (* ?x2251 ?x608)))
 (let (($x3026 (<= (+ (+ (+ (* ?x2992 |v11:0|) (* ?x2701 ?x1175)) (* ?x1526 ?x1663)) ?x549) ?x1176)))
 (let ((?x2122 (+ (+ (+ (* ?x2395 (rval2 |v6:5_st|)) (* (- 18.0) |v5:6|)) (* ?x3024 |v1:10|)) (* 4.0 |v9:2|))))
 (let ((?x2785 (* 14.0 ?x1175)))
 (let (($x1124 (<= (+ (+ (+ (* ?x1526 |v11:0|) (* 17.0 ?x608)) (* ?x1188 |v9:2|)) ?x2785) 12.0)))
 (let ((?x1304 (* ?x1236 |v7:4|)))
 (let ((?x1483 (+ (+ (* (- 6.0) (rval2 |v4:7_st|)) (* 7.0 (rval2 |v4:7_st|))) (* ?x2992 |v9:2|))))
 (let ((?x473 (* 13.0 ?x2803)))
 (let (($x1179 (<= (+ (+ (+ (* 9.0 (rval2 |v6:5_st|)) (* ?x721 |v11:0|)) ?x2652) ?x473) ?x1176)))
 (let ((?x243 (* ?x1526 ?x2803)))
 (let ((?x2052 (+ (+ (+ (* 12.0 (rval2 |v4:7_st|)) (* ?x1236 ?x2803)) (* 9.0 ?x2803)) ?x243)))
 (let ((?x1065 (* 0.0 ?x2803)))
 (let ((?x111 (+ (+ (+ (* 4.0 ?x1175) (* 17.0 (rval2 |v6:5_st|))) (* ?x2395 ?x1175)) ?x1065)))
 (let (($x2450 (or (and (<= ?x111 19.0) (<= ?x2052 6.0)) (and $x1179 (<= (+ ?x1483 ?x1304) ?x721)))))
 (let ((?x1341 (* 10.0 ?x1663)))
 (let ((?x561 (* 4.0 |v5:6|)))
 (let ((?x632 (+ (+ (+ (* (- 4.0) (rval2 |v4:7_st|)) (* (- 16.0) ?x1175)) ?x561) ?x1341)))
 (let ((?x1089 (+ (+ (+ (* (- 4.0) ?x1175) (* 19.0 |v5:6|)) ?x243) (* ?x2251 (rval2 |v6:5_st|)))))
 (let (($x2347 (<= (+ (+ (+ (* ?x109 |v11:0|) (* 7.0 |v7:4|)) (* ?x3024 |v1:10|)) ?x108) 16.0)))
 (let ((?x2247 (+ (+ (+ (* ?x721 |v7:4|) (* 8.0 ?x2803)) (* 13.0 (rval2 |v4:7_st|))) (* ?x1188 |v11:0|))))
 (let ((?x2838 (* 5.0 |v11:0|)))
 (let (($x2003 (<= (+ (+ (+ (* 15.0 ?x1663) (* 8.0 |v5:6|)) (* 18.0 |v3:8|)) ?x2838) 14.0)))
 (let ((?x1239 (* ?x1526 |v7:4|)))
 (let ((?x1311 (+ (+ (+ (* (- 16.0) ?x2803) (* 7.0 (rval2 |v6:5_st|))) (* 7.0 |v1:10|)) ?x1239)))
 (let (($x1010 (and (and (or (<= ?x1311 ?x1188) $x2003) (and (<= ?x2247 18.0) $x2347)) (and (<= ?x1089 7.0) (<= ?x632 14.0)))))
 (let (($x2920 (or $x1010 (and $x2450 (and (or $x1124 (<= ?x2122 ?x2992)) (or $x3026 (<= ?x2346 ?x2412)))))))
 (let ((?x328 (* ?x3024 |v1:10|)))
 (let ((?x2146 (+ (+ (+ (* ?x2395 |v5:6|) (* 5.0 (rval2 |v6:5_st|))) (* 9.0 |v5:6|)) ?x328)))
 (let ((?x1953 (- 14.0)))
 (let (($x2968 (<= (+ (+ (+ (* 10.0 |v1:10|) (* 15.0 ?x2803)) ?x2803) (* ?x721 ?x608)) ?x1953)))
 (let ((?x1933 (* 2.0 ?x608)))
 (let (($x879 (<= (+ (+ (+ (* 20.0 ?x1175) (* ?x1188 |v7:4|)) (* 13.0 |v5:6|)) ?x1933) ?x109)))
 (let ((?x2250 (* 11.0 |v5:6|)))
 (let (($x637 (<= (+ (+ (+ (* ?x1526 ?x1175) (* 7.0 |v1:10|)) (* 9.0 |v7:4|)) ?x2250) ?x2685)))
 (let ((?x2907 (+ (+ (+ (* ?x3024 |v5:6|) (* (- 6.0) ?x608)) (* 15.0 (rval2 |v4:7_st|))) (* ?x3024 ?x1663))))
 (let ((?x105 (+ (+ (+ (* 13.0 |v3:8|) (* 9.0 ?x2803)) (* 5.0 ?x608)) (* ?x2992 ?x608))))
 (let ((?x2308 (* ?x1526 |v11:0|)))
 (let (($x1140 (<= (+ (+ (+ (* ?x1176 |v5:6|) (* ?x2685 |v5:6|)) (* 4.0 ?x608)) ?x2308) ?x2992)))
 (let ((?x2588 (- 4.0)))
 (let ((?x1486 (+ (+ (+ ?x1184 (* (- 6.0) (rval2 |v6:5_st|))) (* (- 6.0) |v11:0|)) (* ?x2251 |v7:4|))))
 (let (($x1504 (and (or (and (<= ?x1486 ?x2588) $x1140) (or (<= ?x105 ?x2251) (<= ?x2907 15.0))) (and (and $x637 $x879) (or $x2968 (<= ?x2146 13.0))))))
 (let ((?x2874 (+ (+ (+ (* ?x2588 |v5:6|) (* ?x1953 ?x1663)) (* (- 20.0) ?x608)) (* ?x2588 |v1:10|))))
 (let ((?x1334 (+ (+ (+ (* ?x2412 |v7:4|) (* 17.0 |v7:4|)) (* ?x109 |v11:0|)) (* (- 20.0) ?x2803))))
 (let ((?x127 (+ (+ (+ (* ?x2395 ?x1663) (* 5.0 |v3:8|)) (* 16.0 ?x2803)) (* 0.0 |v9:2|))))
 (let ((?x2924 (+ (+ (+ (* 16.0 |v1:10|) (* 11.0 |v7:4|)) (* 11.0 ?x608)) (* 16.0 |v7:4|))))
 (let (($x2549 (or (<= (+ (+ (+ (* 10.0 |v1:10|) ?x108) (* 2.0 ?x2803)) ?x1663) ?x3024) (<= ?x2924 ?x721))))
 (let ((?x291 (+ (+ (+ (* ?x721 |v3:8|) (* 10.0 |v11:0|)) (* (- 16.0) |v3:8|)) (* ?x721 (rval2 |v6:5_st|)))))
 (let ((?x1875 (* 15.0 |v1:10|)))
 (let (($x655 (<= (+ (+ (+ (rval2 |v4:7_st|) (* 17.0 ?x1663)) (* ?x2395 ?x608)) ?x1875) 18.0)))
 (let (($x2821 (or (and (and $x655 (<= ?x291 ?x1248)) $x2549) (and (<= ?x127 5.0) (or (<= ?x1334 1.0) (<= ?x2874 ?x2395))))))
 (let (($x432 (or (and (and $x2821 $x1504) $x2920) (and $x2898 (or (<= ?x2645 2.0) (and $x1172 $x2996))))))
 (let (($x1423 (not (= |v0:11_st| (RMk1 val!3053)))))
 (let (($x937 (not (= |v2:9_st| (RMk1 val!3052)))))
 (let (($x1277 (not (= |v4:7_st| (RMk1 val!3051)))))
 (let (($x1151 (not (= |v6:5_st| (RMk1 val!3050)))))
 (let (($x1011 (not (= |v8:3_st| (RMk1 val!3049)))))
 (let (($x439 (not (= |v10:1_st| (RMk1 val!3048)))))
 (and $x439 $x1011 $x1151 $x1277 $x937 $x1423 $x432))))))))))))))))))))))))))))))))))))))))))))))))))))))))))))))))))))))))))))))))))))))))))))))))))))))))))))))))))))))))))
 )
 )
 )
 )
 )
 )
 )
 )
 )
 )
 )
 )
(check-sat)
